c numero: 46
c nombre: n-45-d-0.1
c densidad: 0.1
p edges 45 89
e 1 4
e 1 36
e 1 43
e 2 28
e 2 29
e 2 31
e 3 12
e 3 33
e 3 38
e 3 39
e 4 10
e 4 13
e 4 23
e 4 38
e 4 41
e 5 13
e 5 22
e 5 26
e 5 29
e 5 37
e 5 42
e 5 43
e 6 22
e 6 45
e 7 10
e 7 11
e 7 27
e 7 28
e 8 9
e 8 13
e 8 18
e 8 21
e 8 26
e 8 38
e 8 39
e 9 43
e 9 44
e 10 13
e 10 16
e 10 27
e 11 12
e 11 16
e 11 17
e 11 32
e 11 33
e 12 25
e 12 35
e 12 44
e 13 28
e 14 15
e 14 32
e 14 34
e 15 33
e 15 42
e 16 31
e 16 36
e 17 29
e 17 32
e 17 34
e 18 37
e 19 20
e 19 23
e 19 32
e 19 33
e 20 34
e 20 43
e 21 28
e 21 30
e 21 32
e 22 30
e 23 27
e 23 33
e 23 42
e 24 41
e 24 44
e 25 45
e 26 31
e 27 34
e 28 34
e 29 43
e 30 36
e 30 40
e 30 45
e 31 38
e 31 45
e 33 44
e 34 40
e 34 41
e 35 41
